W=5;
H=3;

MAX_TIME=8;
MAX_TRACKS=1;

TARGET=(1,5);

TRAINS=[(1,1,RIGHT)];
DECOYS=[];

INIT_POS=[
(1,1,STRAIGHT_RL),
(1,2,SWITCH_R_L_D),
(1,3,STRAIGHT_RL),
(1,5,STRAIGHT_RL),
(2,2,STRAIGHT_TD),
(2,4,STRAIGHT_TD),
(3,2,CORNER_TR),
(3,3,STRAIGHT_RL),
(3,4,CORNER_TL),
];
TUNNEL_PAIRS=[];

GATES=[];
ACTIVATIONS=[];

DSWITCHES=[];

STATIONS=[];
